c ---- [ banner ] ------------------------------------------------------------
c
c Kissat SAT Solver
c 
c Copyright (c) 2021-2022 Armin Biere University of Freiburg
c Copyright (c) 2019-2021 Armin Biere Johannes Kepler University Linz
c 
c Version 3.0.0 04691ecb8fb57fb02e95ce19153764a501e72c8b
c gcc (Ubuntu 11.4.0-1ubuntu1~22.04) 11.4.0 -W -Wall -O3 -DNDEBUG
c Fri May 17 12:24:20 JST 2024 Linux matsusewin 5.15.146.1-microsoft-standard-WSL2 x86_64
c
c ---- [ parsing ] -----------------------------------------------------------
c
c opened and reading DIMACS file:
c
c   /mnt/c/Users/uncun/Downloads/labo/SAT_instance/waerden_cnf/waerden_3_4_17.cnf
c
c parsed 'p cnf 17 104' header
c closing input after reading 1247 bytes (1 KB)
c finished parsing after 0.00 seconds
c
c ---- [ options ] -----------------------------------------------------------
c
c --statistics=true                (different from default 'false')
c
c ---- [ solving ] -----------------------------------------------------------
c
c  seconds switched rate      trail  variables
c         MB reductions conflicts glue   remaining
c          level restarts redundant irredundant
c
c *  0.01  1 0 0 0  0 0   0   0 0% 0 104 17 94%
c {  0.01  1 0 0 0  0 0   0   0 0% 0 104 17 94%
c }  0.01  1 5 0 0  0 5   1   1 82% 4 104 17 94%
c 1  0.01  1 5 0 0  0 5   1   1 82% 4 104 17 94%
c
c ---- [ result ] ------------------------------------------------------------
c
s SATISFIABLE
c
c ---- [ profiling ] ---------------------------------------------------------
c
c           0.00    1.51 %  parse
c           0.00    1.40 %  search
c           0.00    0.42 %  focused
c           0.00    0.00 %  simplify
c =============================================
c           0.01  100.00 %  total
c
c ---- [ statistics ] --------------------------------------------------------
c
c backbone_computations:                    0                0.00 interval
c backbone_ticks:                           0 
c clauses_irredundant:                    104 
c clauses_redundant:                        1 
c conflicts:                                1               86.01 per second
c decisions:                                5                5.00 per conflict
c eliminated:                               0                0 %  variables
c eliminations:                             0                0    interval
c eliminate_resolutions:                    0                0.00 per second
c forward_checks:                           0 
c forward_steps:                            0                0    per check
c kitten_propagations:                      0                0.00 per solved
c kitten_solved:                            0 
c kitten_ticks:                             0                0.00 per prop
c probings:                                 0                0    interval
c probing_ticks:                            0 
c propagations:                            21             1806    per second
c reductions:                               0                0    interval
c rephased:                                 0                0    interval
c restarts:                                 0                0.00 interval
c searches:                                 1                1    interval
c search_ticks:                           206 
c strengthened:                             0                0 %  checks
c substituted:                              0                0 %  variables
c substitute_ticks:                         0 
c subsumption_checks:                       0 
c subsumed:                                 0                0 %  checks
c sweep:                                    0                0    interval
c sweep_completed:                          0                0    sweeps
c sweep_equivalences:                       0                0 %  variables
c sweep_solved:                             0                0 %  kitten_solved
c sweep_units:                              0                0 %  variables
c sweep_variables:                          0                0 %  variables
c switched_modes:                           0                0    interval
c units:                                    0                0 %  variables
c variables_activated:                     17                0.94 per variable
c variables_added:                         17                0.94 per variable
c variables_removed:                       17                0.94 variables
c vivifications:                            0                0    interval
c vivified:                                 0                0 %  checks
c vivify_checks:                            0                0    per vivify
c walk_improved:                            0                0 %  walks
c walks:                                    0                0    interval
c walk_steps:                               0 
c warmups:                                  0                0 %  walks
c
c ---- [ resources ] ---------------------------------------------------------
c
c maximum-resident-set-size:         13709312 bytes         13 MB
c process-time:                                          0.010698 seconds
c
c ---- [ shutting down ] -----------------------------------------------------
c
c exit 10
